30
    1    44    35
    2     6    26
    3    16    48
    4    42    21
    5    49    22
    6    37    45
    7     7    43
    8    15    45
    9    46     5
   10    22     2
   11    42    21
   12    49    22
   13    37    45
   14     7    43
   15    15    45
   16    12    21
   17    49    22
   18    37    45
   19     6    26
   20    16    48
   21    42    21
   22    99    22
   23    37    45
   24     7    43
   25    15    45
   26    46     5
   27    7     2
   28    22    21
   29    69    22
   30    21    8
143
